! OPT BLYP def2-SVP

* xyzfile 0 1 fluoromethane.xyz
