! OPT PM3

* xyzfile 0 1 fluoromethane.xyz
