! OPT B2PLYP NORI def2-TZVP

* xyzfile 0 1 fluoromethane.xyz
