! OPT B3LYP def2-TZVP

* xyzfile 0 1 fluoromethane.xyz
