! OPT B3LYP def2-SVP

* xyzfile 0 1 fluoromethane.xyz
