! BLYP def2-SV(P) def2/J OPT Freq

* xyz 0 1
H 0 0 0
O 0 0 1
H 0 0 2
*